unsat
(:max-memory         18.15
 :memory             18.05
 :nlsat-conflicts    3
 :nlsat-propagations 10
 :nlsat-stages       3
 :num-allocs         39025
 :rlimit-count       12697
 :time               0.01
 :total-time         0.02)
